    0            330      850   0      0  0 0      0     1440
    1            348      866  60    250  1 1 1  300     1320
    2            348      877  60    150  1 1 1  300      540
    3            337      858  60    300  1 1 1  300     1320
    4            324      870  60    224  1 1 1  300      540
    5            332      876  60    210  1 1 1  300     1320
    6            338      873  60    250  1 1 1  300     1320
    7            305      879  60    220  1 1 1  300     1320
    8            342      868  60    300  1 1 1  300      540
    9            318      866  60    180  1 1 1  300     1320
   10            330      859  60    190  1 1 1  300      540
   11            319      852  60    160  1 1 1  720     1080
   12            335      865  60    270  1 1 1  300     1320
   13            340      861  60    210  1 1 1  720     1080
   14            338      871  60    255  1 1 1  300     1320
   15            335      868  60    228  1 1 1  240      300
   16            334      866  60    220  1 1 1  720     1080
   17            310      873  60    165  1 1 1  300     1320
   18            344      857  60    215  1 1 1  300      540
   19            313      863  60    155  1 1 1  300     1320
   20            336      868  60    200  1 1 1  300      540
   21            344      869  60    210  1 1 1  300     1320
   22            343      865  60    220  1 1 1  240      300
   23            348      870  60    280  1 1 1  720     1080
   24            314      869  60    190  1 1 1  720     1080
   25            335      868  60    240  1 1 1  240      300
   26            331      854  60    265  1 1 1  300     1320
   27            342      862  60    230  1 1 1  300      540
   28            345      859  60    255  1 1 1  300     1320
   29            332      875  60    225  1 1 1  300     1320
   30            340      860  60    170  1 1 1  300      540
   31            348      870  60    165  1 1 1  300     1320
   32            347      877  60    200  1 1 1  300      540
   33            346      870  60    175  1 1 1  300     1320
   34            328      866  60    190  1 1 1  720     1080
   35            304      873  60    160  1 1 1  300     1320
   36            304      872  60    220  1 1 1  300     1320
   37            345      853  60    180  1 1 1  300     1320
   38            347      854  60    240  1 1 1  300     1320
   39            348      850  60    133  1 1 1  300     1320
   40            342      887  60    215  1 1 1  300     1320
   41            312      854  60    200  1 1 1  300     1320
   42            325      850  60    250  1 1 1  300     1320
   43            347      866  60    300  1 1 1  960     1080
   44            348      877  60    180  1 1 1  720     1080
   45            347      866  60    320  1 1 1  300     1320
   46            347      866  60    250  1 1 1  300      540
   47            347      866  60    250  1 1 1  240      300
   48            347      866  60    230  1 1 1  300     1320
   49            347      866  60    410  1 1 1  300     1320
   50            348      877  60    205  1 1 1  300      540
   51            337      858  60    340  1 1 1  300     1320
   52            332      875  60    325  1 1 1  960     1080
   53            323      863  60    215  1 1 1  300     1320
   54            324      863  60    195  1 1 1  300     1320
   55            348      877  60    275  1 1 1  300      540
   56            326      855  60    280  1 1 1  300     1320
   57            332      875  60    330  1 1 1  300     1320
   58            318      859  60    250  1 1 1  300     1320
   59            314      857  60    345  1 1 1  300     1320
   60            325      865  60    315  1 1 1  300      540
   61            324      863  60    330  1 1 1  300      540
   62            324      863  60    350  1 1 1  720     1080
   63            324      863  60    300  1 1 1  720     1080
   64            343      862  60    340  1 1 1  720     1080
   65            313      858  60    327  1 1 1  720     1080
   66            312      854  60    295  1 1 1  960     1080
   67            328      852  60    350  1 1 1  300      540
   68            307      882  60    290  1 1 1  960     1080
   69            307      881  60    245  1 1 1  300      540
   70            306      882  60    290  1 1 1  300     1320
   71            338      858  60    245  1 1 1  720     1080
   72            309      878  60    271  1 1 1  720     1080
   73            313      865  60    175  1 1 1  960     1080
   74            345      877  60    290  1 1 1  240      300
   75            311      871  60    280  1 1 1  300     1320
   76            304      877  60    255  1 1 1  240      300
   77            334      861  60    250  1 1 1  300     1320
   78            313      857  60    360  1 1 1  720     1080
   79            325      862  60    270  1 1 1  960     1080
   80            343      863  60    215  1 1 1  300     1320
   81            337      868  60    300  1 1 1  300     1320
   82            347      867  60    290  1 1 1  300     1320
   83            325      878  60    195  1 1 1  960     1080
   84            333      864  60    331  1 1 1  300      540
   85            334      870  60    250  1 1 1  960     1080
   86            335      869  60    315  1 1 1  720     1080
   87            324      863  60    380  1 1 1  300     1320
   88            336      866  60    355  1 1 1  300     1320
   89            315      879  60    345  1 1 1  960     1080
   90            332      868  60    280  1 1 1  300     1320
   91            346      870  60    335  1 1 1  300     1320
   92            325      859  60    330  1 1 1  300     1320
   93            329      871  60    282  1 1 1  300      540
   94            319      877  60    310  1 1 1  300     1320
   95            307      879  60    215  1 1 1  720     1080
   96            337      878  60    330  1 1 1  720     1080
   97            341      880  60    290  1 1 1  300     1320
   98            334      866  60    300  1 1 1  300     1320
   99            334      869  60    295  1 1 1  960     1080
  100            337      867  60    259  1 1 1  300     1320
  101            335      868  60    360  1 1 1  300      540
  102            308      881  60    260  1 1 1  300     1320
  103            347      870  60    268  1 1 1  720     1080
  104            310      875  60    285  1 1 1  300     1320
  105            346      870  60    380  1 1 1  300     1320
  106            314      861  60    220  1 1 1  300     1320
  107            326      855  60    226  1 1 1  300     1320
  108            336      868  60    290  1 1 1  300     1320
  109            347      860  60    330  1 1 1  300     1320
  110            338      858  60    175  1 1 1  300      540
  111            304      883  60    330  1 1 1  300     1320
  112            306      882  60    237  1 1 1  300     1320
  113            342      876  60    445  1 1 1  300      540
  114            307      881  60    245  1 1 1  300     1320
  115            324      863  60    350  1 1 1  300     1320
  116            340      860  60    265  1 1 1  300     1320
  117            310      859  60    305  1 1 1  300     1320
  118            332      863  60    220  1 1 1  300     1320
  119            336      868  60    331  1 1 1  720     1080
  120            316      852  60    257  1 1 1  720     1080
  121            336      864  60    360  1 1 1  960     1080
  122            339      864  60    380  1 1 1  240      300
  123            313      854  60    360  1 1 1  240      300
  124            342      857  60    277  1 1 1  300     1320
  125            324      863  60    400  1 1 1  300     1320
  126            324      863  60    310  1 1 1  300     1320
  127            337      858  60    255  1 1 1  300      540
  128            337      858  60    366  1 1 1  300      540
  129            328      858  60    335  1 1 1  300     1320
  130            317      863  60    235  1 1 1  300     1320
  131            323      863  60    360  1 1 1  960     1080
  132            326      854  60    325  1 1 1  720     1080
  133            310      863  60    219  1 1 1  300     1320
  134            339      878  60    360  1 1 1  300     1320
  135            321      857  60    265  1 1 1  300     1320
  136            331      868  60    270  1 1 1  960     1080
  137            350      858  60    240  1 1 1  720     1080
  138            331      868  60    380  1 1 1  960     1080
  139            314      853  60    275  1 1 1  300      540
  140            317      858  60    250  1 1 1  960     1080
  141            326      874  60    260  1 1 1  300      540
  142            339      856  60    260  1 1 1  960     1080
  143            347      860  60    250  1 1 1  300     1320
  144            329      852  60    250  1 1 1  240      300
  145            350      910  60    250  1 1 1  300      540
  146            308      852  60    230  1 1 1  720     1080
  147            305      865  60    460  1 1 1  300     1320
  148            304      872  60    265  1 1 1  300     1320
  149            307      861  60    315  1 1 1  960     1080
  150            306      871  60    290  1 1 1  300     1320
  151            304      872  60    225  1 1 1  300      540
  152            309      857  60    400  1 1 1  300     1320
  153            304      865  60    225  1 1 1  300     1320
  154            304      872  60    290  1 1 1  720     1080
  155            306      866  60    465  1 1 1  720     1080
  156            303      856  60    185  1 1 1  300     1320
  157            302      856  60    180  1 1 1  300      540
  158            298      853  60    220  1 1 1  300     1320
  159            302      858  60    160  1 1 1  240      300
  160            307      848  60    300  1 1 1  300     1320
  161            304      850  60    300  1 1 1  300      540
  162            302      856  60    185  1 1 1  300      540
  163            302      856  60    221  1 1 1  300      540
  164            306      866  60    215  1 1 1  240      300
  165            308      866  60    430  1 1 1  240      300
  166            304      866  60    350  1 1 1  960     1080
  167            302      858  60    100  1 1 1  960     1080
  168            304      872  60    245  1 1 1  720     1080
  169            297      850  60    250  1 1 1  300     1320
  170            310      855  60    315  1 1 1  300     1320
  171            304      872  60    300  1 1 1  960     1080
  172            304      872  60    265  1 1 1  300     1320
  173            332      843  60    240  1 1 1  300     1320
  174            326      837  60    165  1 1 1  300      540
  175            330      850  60    220  1 1 1  300     1320
  176            321      842  60    171  1 1 1  300     1320
  177            320      838  60    155  1 1 1  300     1320
  178            326      839  60    190  1 1 1  240      300
  179            325      849  60    325  1 1 1  300     1320
  180            325      837  60    160  1 1 1  240      300
  181            323      835  60    215  1 1 1  300     1320
  182            334      848  60    165  1 1 1  300      540
  183            336      851  60    150  1 1 1  300     1320
  184            314      849  60    240  1 1 1  720     1080
  185            337      840  60    145  1 1 1  960     1080
  186            340      834  60    325  1 1 1  720     1080
  187            339      845  60    200  1 1 1  300     1320
  188            326      837  60    315  1 1 1  300     1320
  189            331      842  60    190  1 1 1  300     1320
  190            337      843  60    200  1 1 1  720     1080
  191            324      834  60    305  1 1 1  300     1320
  192            339      845  60    206  1 1 1  300      540
  193            339      845  60    220  1 1 1  300      540
  194            336      844  60    250  1 1 1  720     1080
  195            337      847  60    130  1 1 1  240      300
  196            337      844  60    176  1 1 1  300     1320
  197            338      841  60    168  1 1 1  300     1320
  198            339      840  60    200  1 1 1  300     1320
  199            338      838  60    340  1 1 1  300     1320
  200            338      842  60    204  1 1 1  300     1320
  201            318      844  60    210  1 1 1  720     1080
  202            339      842  60    150  1 1 1  960     1080
  203            343      852  60    200  1 1 1  300     1320
  204            338      843  60    200  1 1 1  300      540
  205            332      843  60    245  1 1 1  300     1320
  206            338      844  60    250  1 1 1  300     1320
  207            337      843  60    250  1 1 1  300     1320
  208            338      841  60    300  1 1 1  300     1320
  209            338      841  60    220  1 1 1  300     1320
  210            339      842  60    150  1 1 1  300     1320
